0	179	294
1	1	13	35
0	2	25	3
0	3	15	5
0	4	31	10
0	5	82	20
0	6	13	16
0	7	89	8
0	8	67	29
1	9	23	27
1	10	7	46
1	11	10	15
0	12	51	10
0	13	5	6
0	14	51	6
0	15	82	71
1	16	32	35
0	17	71	43
1	18	15	25
0	19	43	10
0	20	100	100
1	21	38	35
1	22	23	33
0	23	65	15
0	24	35	20
1	25	5	20
0	26	63	9
0	27	75	18
0	28	56	50
0	29	42	2
1	30	13	23
